0 0 0 0 0 0 0 0 4 0 0
0 0 0 0 28 0 0 0 0 0 12
0 0 0 0 0 0 0 9 0 0 13
0 0 0 0 4 12 0 0 0 0 0
0 28 0 4 0 0 0 0 0 0 0
0 0 0 12 0 0 0 0 0 3 0
0 0 0 0 0 0 0 0 0 99 0
0 0 9 0 0 0 0 0 15 0 0
4 0 0 0 0 0 0 15 0 0 0
0 0 0 0 0 3 99 0 0 0 0
0 12 13 0 0 0 0 0 0 0 0